33D32945 STP File, STP Format Version 1.0

SECTION Comment
Name    "i080-044"
Creator "Cees Duin"
Remark  "Incidence graph"
END

SECTION Graph
Nodes 80
Edges 632
E 1 2 301
E 1 11 199
E 1 25 202
E 1 27 198
E 1 40 201
E 1 42 198
E 1 45 193
E 1 46 189
E 1 51 203
E 1 57 201
E 1 58 193
E 1 68 200
E 1 72 197
E 1 75 203
E 1 80 205
E 2 3 304
E 2 6 295
E 2 19 196
E 2 26 197
E 2 31 201
E 2 36 192
E 2 42 202
E 2 54 204
E 2 56 199
E 2 63 195
E 2 67 197
E 2 78 194
E 3 10 198
E 3 21 193
E 3 24 204
E 3 26 201
E 3 30 185
E 3 31 200
E 3 40 188
E 3 43 203
E 3 53 195
E 3 56 202
E 3 59 198
E 3 60 197
E 3 71 194
E 3 73 199
E 4 9 192
E 4 10 203
E 4 20 199
E 4 22 190
E 4 29 203
E 4 32 192
E 4 36 204
E 4 43 204
E 4 46 202
E 4 51 208
E 4 52 196
E 4 60 193
E 4 61 209
E 4 64 193
E 4 65 207
E 4 69 202
E 4 73 204
E 4 74 192
E 4 76 205
E 5 8 203
E 5 10 212
E 5 14 206
E 5 22 200
E 5 23 192
E 5 33 197
E 5 40 200
E 5 54 202
E 5 64 205
E 5 66 191
E 5 69 206
E 5 72 200
E 5 75 200
E 6 8 193
E 6 9 196
E 6 10 199
E 6 11 203
E 6 19 201
E 6 20 200
E 6 28 195
E 6 33 200
E 6 34 202
E 6 46 200
E 6 50 203
E 6 51 196
E 6 54 201
E 6 55 203
E 6 62 204
E 6 74 209
E 6 76 200
E 6 77 195
E 7 16 97
E 7 24 104
E 7 27 98
E 7 36 99
E 7 38 103
E 7 40 102
E 7 42 101
E 7 47 105
E 7 51 101
E 7 58 108
E 7 62 109
E 7 67 96
E 7 68 101
E 7 74 107
E 7 75 98
E 7 76 103
E 7 80 88
E 8 10 108
E 8 28 96
E 8 32 99
E 8 45 93
E 8 47 98
E 8 49 104
E 8 57 97
E 8 58 102
E 8 61 94
E 8 72 101
E 8 73 97
E 8 76 102
E 8 77 97
E 9 10 92
E 9 16 104
E 9 26 96
E 9 30 97
E 9 37 94
E 9 40 105
E 9 41 96
E 9 50 95
E 9 61 96
E 9 64 86
E 9 66 97
E 10 14 96
E 10 22 101
E 10 23 94
E 10 36 95
E 10 39 106
E 10 40 95
E 10 41 106
E 10 56 96
E 10 57 101
E 10 62 109
E 10 63 100
E 10 66 104
E 10 68 91
E 10 70 97
E 10 72 93
E 10 74 91
E 10 80 99
E 11 19 97
E 11 20 90
E 11 21 90
E 11 30 100
E 11 33 100
E 11 43 100
E 11 54 92
E 11 55 99
E 11 58 106
E 11 63 101
E 11 68 97
E 11 69 93
E 11 74 92
E 11 77 96
E 11 79 93
E 12 16 96
E 12 27 105
E 12 30 95
E 12 34 95
E 12 43 101
E 12 47 94
E 12 48 109
E 12 52 108
E 12 53 106
E 12 57 98
E 12 59 110
E 12 64 88
E 12 67 104
E 12 70 94
E 12 73 98
E 12 74 101
E 12 75 101
E 12 77 104
E 12 78 95
E 13 14 96
E 13 16 103
E 13 19 90
E 13 31 111
E 13 35 100
E 13 37 98
E 13 43 104
E 13 47 97
E 13 52 101
E 13 54 96
E 13 56 103
E 13 58 98
E 13 60 95
E 13 77 96
E 14 15 92
E 14 17 100
E 14 21 106
E 14 27 104
E 14 28 98
E 14 35 102
E 14 36 96
E 14 38 88
E 14 42 99
E 14 44 98
E 14 49 101
E 14 58 102
E 14 78 106
E 14 79 97
E 15 19 99
E 15 20 102
E 15 25 98
E 15 31 88
E 15 32 96
E 15 44 92
E 15 47 104
E 15 75 96
E 15 76 104
E 16 26 99
E 16 29 109
E 16 31 97
E 16 36 101
E 16 40 99
E 16 52 98
E 16 58 99
E 16 59 92
E 16 75 95
E 16 77 103
E 17 18 100
E 17 22 104
E 17 26 100
E 17 27 97
E 17 29 93
E 17 38 101
E 17 40 95
E 17 49 96
E 17 53 93
E 17 61 95
E 17 69 96
E 17 70 95
E 17 73 99
E 17 77 102
E 17 78 89
E 18 24 109
E 18 28 104
E 18 35 92
E 18 50 101
E 18 52 96
E 18 61 103
E 18 75 103
E 19 27 103
E 19 29 96
E 19 30 100
E 19 36 101
E 19 40 93
E 19 42 97
E 19 43 96
E 19 59 104
E 19 65 94
E 19 70 99
E 19 72 104
E 19 77 100
E 20 26 95
E 20 27 101
E 20 34 99
E 20 36 98
E 20 41 93
E 20 43 95
E 20 45 102
E 20 52 99
E 20 67 105
E 20 77 101
E 21 22 104
E 21 27 105
E 21 30 96
E 21 31 98
E 21 39 97
E 21 40 107
E 21 42 92
E 21 46 104
E 21 48 105
E 21 53 98
E 21 56 96
E 21 58 103
E 21 64 90
E 21 69 100
E 21 73 105
E 21 76 99
E 21 80 95
E 22 23 105
E 22 25 89
E 22 38 92
E 22 40 97
E 22 41 98
E 22 49 108
E 22 53 106
E 22 54 100
E 22 62 96
E 22 64 104
E 22 71 102
E 22 74 94
E 23 27 97
E 23 30 110
E 23 33 93
E 23 40 103
E 23 42 102
E 23 43 95
E 23 44 101
E 23 49 92
E 23 54 94
E 23 58 98
E 23 62 108
E 23 65 102
E 23 72 107
E 23 78 103
E 24 44 102
E 24 49 102
E 24 54 92
E 24 59 100
E 24 62 108
E 24 64 101
E 24 66 99
E 24 67 100
E 24 70 92
E 24 72 99
E 24 75 96
E 24 76 91
E 24 77 92
E 25 28 102
E 25 29 99
E 25 42 100
E 25 45 100
E 25 48 95
E 25 50 93
E 25 54 104
E 25 56 99
E 25 59 100
E 25 64 104
E 25 65 106
E 26 32 104
E 26 39 98
E 26 42 99
E 26 43 96
E 26 44 103
E 26 53 102
E 26 59 101
E 26 75 99
E 27 28 96
E 27 38 104
E 27 39 103
E 27 40 103
E 27 42 90
E 27 43 100
E 27 46 102
E 27 48 100
E 27 49 92
E 27 51 98
E 27 52 99
E 27 54 93
E 27 55 95
E 27 66 107
E 27 72 103
E 28 33 100
E 28 37 103
E 28 40 90
E 28 41 91
E 28 46 103
E 28 47 106
E 28 50 102
E 28 56 93
E 28 59 96
E 28 60 104
E 28 69 98
E 28 71 105
E 28 79 105
E 29 32 96
E 29 33 100
E 29 37 98
E 29 38 105
E 29 49 101
E 29 55 98
E 29 61 107
E 29 62 95
E 29 71 107
E 30 45 91
E 30 52 102
E 30 54 96
E 30 63 93
E 30 64 99
E 30 72 98
E 30 73 100
E 30 76 97
E 31 34 96
E 31 35 95
E 31 44 106
E 31 50 102
E 31 52 102
E 31 55 97
E 31 62 103
E 31 66 98
E 31 70 105
E 31 72 100
E 31 74 106
E 31 76 102
E 31 80 96
E 32 34 92
E 32 36 100
E 32 40 100
E 32 41 101
E 32 43 96
E 32 46 94
E 32 52 98
E 32 58 101
E 32 65 100
E 32 70 93
E 33 36 99
E 33 37 93
E 33 39 102
E 33 42 94
E 33 45 107
E 33 48 97
E 33 54 100
E 33 60 110
E 33 62 101
E 33 64 97
E 33 65 98
E 33 67 95
E 33 71 84
E 33 76 99
E 33 80 103
E 34 35 105
E 34 38 101
E 34 41 102
E 34 45 101
E 34 51 98
E 34 52 104
E 34 55 102
E 34 57 98
E 34 59 98
E 34 60 107
E 34 62 101
E 34 64 105
E 34 71 101
E 34 73 109
E 34 76 105
E 34 78 99
E 35 45 98
E 35 47 97
E 35 50 97
E 35 51 97
E 35 59 97
E 35 61 93
E 35 67 100
E 35 69 99
E 35 74 102
E 36 39 101
E 36 40 101
E 36 42 93
E 36 52 92
E 36 57 97
E 36 64 104
E 36 78 99
E 37 41 96
E 37 43 106
E 37 44 100
E 37 48 104
E 37 58 105
E 37 64 102
E 37 69 104
E 38 44 92
E 38 46 100
E 38 51 102
E 38 73 99
E 38 74 101
E 38 77 96
E 38 80 96
E 39 44 100
E 39 45 102
E 39 54 104
E 39 64 98
E 39 66 104
E 39 68 99
E 39 70 107
E 39 75 102
E 39 77 101
E 40 41 89
E 40 53 103
E 40 57 101
E 40 58 100
E 40 65 105
E 40 72 97
E 40 73 99
E 40 76 94
E 40 77 100
E 40 80 97
E 41 49 98
E 41 56 102
E 41 58 100
E 41 65 91
E 41 71 95
E 41 75 90
E 42 52 98
E 42 64 105
E 42 70 92
E 42 72 94
E 42 75 105
E 42 79 98
E 43 61 109
E 43 65 99
E 43 68 103
E 43 69 96
E 43 70 93
E 43 78 95
E 43 79 92
E 43 80 90
E 44 49 98
E 44 51 102
E 44 65 96
E 44 71 98
E 44 75 102
E 45 52 95
E 45 58 92
E 45 59 99
E 45 66 101
E 45 70 96
E 45 75 93
E 45 76 104
E 45 77 104
E 45 80 107
E 46 49 92
E 46 60 93
E 46 61 92
E 46 72 96
E 46 77 88
E 46 78 98
E 47 50 107
E 47 52 95
E 47 57 102
E 47 62 96
E 47 64 102
E 47 65 101
E 47 72 98
E 47 75 101
E 47 77 100
E 48 52 99
E 48 55 99
E 48 56 90
E 48 76 101
E 49 51 98
E 49 53 108
E 49 60 96
E 49 69 95
E 49 70 96
E 49 80 97
E 50 53 95
E 50 56 102
E 50 68 98
E 50 76 92
E 50 77 98
E 51 52 101
E 51 53 100
E 51 68 95
E 51 71 97
E 51 78 96
E 52 60 95
E 52 63 99
E 52 65 101
E 52 69 97
E 52 80 101
E 53 63 99
E 53 66 102
E 53 78 107
E 53 80 102
E 54 72 95
E 55 63 97
E 56 59 99
E 56 67 97
E 56 69 101
E 56 72 105
E 56 73 102
E 57 58 104
E 57 59 98
E 57 77 98
E 58 62 108
E 58 63 97
E 58 71 100
E 58 74 97
E 58 76 98
E 58 79 99
E 59 65 103
E 59 69 100
E 59 77 91
E 60 72 93
E 60 76 94
E 60 78 102
E 60 80 106
E 61 62 97
E 61 64 100
E 61 70 105
E 61 71 98
E 62 78 93
E 62 79 106
E 62 80 101
E 63 65 101
E 63 73 97
E 63 74 94
E 63 79 102
E 64 67 96
E 64 72 94
E 65 67 97
E 65 80 96
E 66 69 94
E 66 73 99
E 66 79 97
E 67 76 102
E 67 80 103
E 68 70 104
E 68 71 98
E 69 74 106
E 69 78 97
E 70 73 106
E 71 77 95
E 72 73 106
E 72 76 101
E 72 80 87
E 74 80 100
E 75 76 98
E 75 77 100
E 76 78 106
E 77 80 108
END

SECTION Terminals
Terminals 6
T 1
T 2
T 3
T 4
T 5
T 6
END

EOF
